25  25  25  25  -1  
18  18  18  18  -1  
22  22  22  22  -1  
35  35  35  35  -1  
23  23  23  23  -1  
33  33  33  33  -1  
41  41  41  41  -1  
24  24  24  24  -1  
23  23  23  23  -1  
37  37  37  37  -1  
24  24  24  24  -1  
21  21  21  21  -1  
27  27  27  27  -1  
20  20  20  20  -1  
22  22  22  22  -1  
